% File represents an instance of a Composite Structure problem to be solved by a CP framework
% Created on 2025-03-26 10:41:20.294
T = 50;
n = 9;
m = 12;
edges = [(1, 2),
(4, 5),
(7, 8),
(2, 3),
(5, 6),
(8, 9),
(4, 1),
(4, 7),
(5, 2),
(5, 8),
(6, 3),
(6, 9)];
counts = [|8, 18, 8, 10,
|8, 14, 8, 8,
|8, 12, 8, 8,
|8, 24, 8, 10,
|8, 18, 8, 10,
|8, 16, 8, 8,
|8, 22, 8, 6,
|8, 16, 8, 6,
|8, 16, 8, 2|];
